5 5
0 34 4 2 2 27 1 74 3 99
1 87 0 72 2 92 3 23 4 68
3 14 4 63 2 93 0 65 1 68
1 63 2 96 4 97 3 90 0 81
4 87 0 64 2 32 1 79 3 13
-1
0 2 4 5
0 3 4 5
0 2 4 5
0 1 2 4 5
0 2 3 4 5
-2
41 216 281
343 317 355
121 337 341
97 235 359 604
162 241 400 342

494 10
0 21 6 13 19
15 3 5 23 14
2 16 12 22 7
10 4 18 8 24
1 20 11 17 9
